750
400 400
1 320 193
2 320 669
3 320 986
4 320 965
5 320 689
6 320 272
7 320 335
8 319 61
9 319 516
10 319 712
11 318 574
12 318 236
13 318 929
14 318 476
15 317 489
16 317 873
17 317 100
18 316 457
19 316 233
20 316 697
21 315 431
22 315 408
23 315 191
24 315 83
25 315 209
26 315 968
27 315 480
28 315 61
29 314 160
30 314 838
31 314 618
32 314 38
33 314 782
34 313 939
35 313 832
36 313 682
37 313 361
38 313 288
39 312 37
40 312 291
41 312 245
42 312 253
43 312 41
44 311 722
45 310 53
46 310 646
47 310 772
48 310 826
49 309 596
50 309 789
51 308 281
52 308 582
53 308 732
54 308 116
55 308 960
56 307 92
57 306 265
58 306 490
59 306 752
60 305 667
61 305 302
62 305 467
63 305 619
64 305 295
65 303 924
66 302 749
67 302 294
68 302 953
69 302 23
70 301 520
71 301 382
72 301 908
73 301 552
74 301 29
75 300 813
76 300 901
77 300 158
78 299 630
79 299 301
80 299 378
81 298 467
82 298 17
83 298 58
84 297 218
85 297 115
86 296 515
87 295 243
88 295 808
89 295 92
90 294 136
91 294 65
92 291 951
93 291 889
94 289 176
95 289 806
96 288 214
97 287 912
98 287 270
99 287 416
100 287 542
101 287 698
102 286 508
103 286 263
104 286 426
105 286 853
106 286 374
107 285 261
108 285 684
109 284 397
110 283 200
111 283 190
112 283 546
113 282 303
114 282 580
115 282 12
116 281 576
117 281 289
118 281 403
119 281 838
120 281 896
121 281 787
122 281 908
123 280 583
124 279 847
125 279 738
126 277 973
127 277 473
128 276 776
129 276 532
130 275 28
131 274 127
132 274 257
133 273 523
134 273 164
135 272 837
136 272 930
137 272 922
138 272 903
139 272 655
140 272 1000
141 271 649
142 271 477
143 271 683
144 270 493
145 270 674
146 270 715
147 270 323
148 270 539
149 270 25
150 270 357
151 269 962
152 268 631
153 267 613
154 267 435
155 266 819
156 266 221
157 266 657
158 265 981
159 264 341
160 264 321
161 264 709
162 263 975
163 262 927
164 262 344
165 262 674
166 260 935
167 259 489
168 259 576
169 259 917
170 259 274
171 258 537
172 258 950
173 257 97
174 257 849
175 256 673
176 256 280
177 255 226
178 255 849
179 255 146
180 255 868
181 254 137
182 254 830
183 254 884
184 254 486
185 254 133
186 252 946
187 252 873
188 251 549
189 251 425
190 251 547
191 251 909
192 251 443
193 250 217
194 250 166
195 249 373
196 249 201
197 249 802
198 248 52
199 248 485
200 248 499
201 247 377
202 247 637
203 247 716
204 247 567
205 246 243
206 246 545
207 246 470
208 245 362
209 245 370
210 244 969
211 244 568
212 243 498
213 243 78
214 242 984
215 242 131
216 242 26
217 241 761
218 241 800
219 241 853
220 241 118
221 241 225
222 241 937
223 241 626
224 240 418
225 240 190
226 240 88
227 240 776
228 240 944
229 239 595
230 239 286
231 239 31
232 238 773
233 238 505
234 238 172
235 237 813
236 237 801
237 237 306
238 236 942
239 236 135
240 236 738
241 236 491
242 235 477
243 235 357
244 235 261
245 235 498
246 234 246
247 233 784
248 233 441
249 233 533
250 233 300
251 232 181
252 232 470
253 232 978
254 232 967
255 232 806
256 231 476
257 230 114
258 230 738
259 230 165
260 229 808
261 229 963
262 229 264
263 228 596
264 228 383
265 227 263
266 227 282
267 227 742
268 227 1
269 226 315
270 226 780
271 226 414
272 225 947
273 225 685
274 225 338
275 225 867
276 225 728
277 224 57
278 224 664
279 223 837
280 223 406
281 223 71
282 223 481
283 222 811
284 222 43
285 222 893
286 222 604
287 221 106
288 221 796
289 220 282
290 220 722
291 219 233
292 218 82
293 218 843
294 218 411
295 218 493
296 217 131
297 217 651
298 216 357
299 216 890
300 215 523
301 215 597
302 215 67
303 214 836
304 214 966
305 213 552
306 213 597
307 213 587
308 213 799
309 212 872
310 212 793
311 212 825
312 212 679
313 212 70
314 212 835
315 211 310
316 211 199
317 211 123
318 211 146
319 211 79
320 210 387
321 210 268
322 210 996
323 210 394
324 209 576
325 208 441
326 208 221
327 208 235
328 208 997
329 207 603
330 207 47
331 207 224
332 206 666
333 206 375
334 206 630
335 205 926
336 204 320
337 204 540
338 204 121
339 204 404
340 203 233
341 201 585
342 200 677
343 200 781
344 200 56
345 199 416
346 199 961
347 199 647
348 199 384
349 198 682
350 197 859
351 197 202
352 196 26
353 196 615
354 196 831
355 196 257
356 195 686
357 195 426
358 195 161
359 195 684
360 195 481
361 195 690
362 195 817
363 194 490
364 194 789
365 194 390
366 194 51
367 193 96
368 193 260
369 193 656
370 192 694
371 192 25
372 192 147
373 192 2
374 192 154
375 191 395
376 190 836
377 190 405
378 189 111
379 188 808
380 188 302
381 187 100
382 186 710
383 186 961
384 186 131
385 186 372
386 185 239
387 183 192
388 183 929
389 183 699
390 182 293
391 182 733
392 182 287
393 181 469
394 180 863
395 179 89
396 178 468
397 178 498
398 178 359
399 177 247
400 177 84
401 177 737
402 176 601
403 176 722
404 176 863
405 175 791
406 175 272
407 174 607
408 174 307
409 173 682
410 173 624
411 173 419
412 172 291
413 172 628
414 172 454
415 171 117
416 170 356
417 170 415
418 170 919
419 170 517
420 169 820
421 169 193
422 168 674
423 168 769
424 168 727
425 167 826
426 167 819
427 166 360
428 166 809
429 166 736
430 166 771
431 166 585
432 165 728
433 165 159
434 165 156
435 165 178
436 164 93
437 163 132
438 163 813
439 163 326
440 163 487
441 163 333
442 163 819
443 161 340
444 161 102
445 160 834
446 159 939
447 159 923
448 158 266
449 158 549
450 158 469
451 158 362
452 158 754
453 157 166
454 157 202
455 157 663
456 156 83
457 155 509
458 155 736
459 155 543
460 154 968
461 153 707
462 152 524
463 151 694
464 151 438
465 151 521
466 150 849
467 149 122
468 149 104
469 148 3
470 148 246
471 148 930
472 148 917
473 148 157
474 147 778
475 147 186
476 147 468
477 147 767
478 147 409
479 146 957
480 145 888
481 145 722
482 145 714
483 145 683
484 144 121
485 144 154
486 144 853
487 144 486
488 143 788
489 142 923
490 142 878
491 142 716
492 142 76
493 141 797
494 140 664
495 140 503
496 140 203
497 140 98
498 140 505
499 140 433
500 139 776
501 139 268
502 139 258
503 137 839
504 137 581
505 137 778
506 137 488
507 136 305
508 136 352
509 136 92
510 135 692
511 135 143
512 134 627
513 134 184
514 134 640
515 133 266
516 132 359
517 131 866
518 131 500
519 131 304
520 131 477
521 130 541
522 130 864
523 130 53
524 129 653
525 129 489
526 128 382
527 128 666
528 128 945
529 127 992
530 127 382
531 126 482
532 126 766
533 126 32
534 124 856
535 124 271
536 124 452
537 124 643
538 123 199
539 123 840
540 122 4
541 122 432
542 122 773
543 121 911
544 121 104
545 121 998
546 121 654
547 120 330
548 120 576
549 120 339
550 119 665
551 119 701
552 118 903
553 118 749
554 118 990
555 117 501
556 117 212
557 116 902
558 116 374
559 116 636
560 116 779
561 116 29
562 116 669
563 116 981
564 115 70
565 115 952
566 114 340
567 114 202
568 114 203
569 113 283
570 113 390
571 112 694
572 112 785
573 112 661
574 112 466
575 111 930
576 111 759
577 110 607
578 109 768
579 109 573
580 108 554
581 108 657
582 107 517
583 106 773
584 106 767
585 105 414
586 105 827
587 105 499
588 105 605
589 104 298
590 103 6
591 103 258
592 101 498
593 101 847
594 101 943
595 100 179
596 100 488
597 100 114
598 100 576
599 100 381
600 100 199
601 99 784
602 97 56
603 97 875
604 97 880
605 96 865
606 96 528
607 96 43
608 95 30
609 95 505
610 95 667
611 94 815
612 94 966
613 93 629
614 93 248
615 92 41
616 92 999
617 91 304
618 91 462
619 90 766
620 90 451
621 89 665
622 88 377
623 88 475
624 87 791
625 87 858
626 87 940
627 87 425
628 86 349
629 86 289
630 86 769
631 86 811
632 85 298
633 85 779
634 84 736
635 84 319
636 84 420
637 84 203
638 83 313
639 83 983
640 83 900
641 82 363
642 82 801
643 82 804
644 82 749
645 81 792
646 80 108
647 80 20
648 79 24
649 79 769
650 79 825
651 78 650
652 78 375
653 77 770
654 77 234
655 76 23
656 76 434
657 76 735
658 75 619
659 75 39
660 75 490
661 75 852
662 75 102
663 75 721
664 74 741
665 74 42
666 74 521
667 74 652
668 73 278
669 73 431
670 73 1
671 73 537
672 72 609
673 72 184
674 72 585
675 72 156
676 72 230
677 71 700
678 70 948
679 70 2
680 70 270
681 69 191
682 69 511
683 68 56
684 68 288
685 67 143
686 67 15
687 67 242
688 66 525
689 66 638
690 65 427
691 64 65
692 62 927
693 62 369
694 60 648
695 60 408
696 60 503
697 59 570
698 59 814
699 59 639
700 59 529
701 58 542
702 58 468
703 58 327
704 57 503
705 57 697
706 56 584
707 56 661
708 56 651
709 56 831
710 55 120
711 55 894
712 55 576
713 55 714
714 55 281
715 54 219
716 54 338
717 54 474
718 53 578
719 53 1
720 53 53
721 53 868
722 53 713
723 53 399
724 52 98
725 51 617
726 51 429
727 50 745
728 50 137
729 50 598
730 49 323
731 48 897
732 48 50
733 48 887
734 48 694
735 48 676
736 48 725
737 46 333
738 46 536
739 46 510
740 44 336
741 44 821
742 43 297
743 43 981
744 43 794
745 42 946
746 42 916
747 41 768
748 40 952
749 40 31
750 40 995
